proyfinal/src/viki/013/andrea/andrea-localstore/experimentInOfficeAgust.take6/worker_6/f7df07ed-8c78-43f6-bc45-b8c39a23155a.als.cnf.out
Reading from standard input... Use '--help' for help.
============================[ Problem Statistics ]=============================
|                                                                             |
|  Number of variables:         87638                                         |
|  Number of clauses:          161767                                         |
|  Parse time:                   0.04 s                                       |
|                                                                             |
============================[ Search Statistics ]==============================
| Conflicts |          ORIGINAL         |          LEARNT          | Progress |
|           |    Vars  Clauses Literals |    Limit  Clauses Lit/Cl |          |
===============================================================================
|       100 |   63678   109877   274745 |    40288      100     25 | 27.340 % |
|       250 |   63678   109877   274745 |    44317      250     52 | 27.340 % |
|       475 |   63662   109811   274592 |    48748      289     35 | 27.358 % |
|       812 |   63662   109811   274592 |    53623      626     62 | 27.358 % |
|      1318 |   63583   109487   273851 |    58986     1125     69 | 27.448 % |
|      2077 |   63554   109325   273487 |    64884     1774     69 | 27.481 % |
|      3216 |   63553   109322   273481 |    71373     2912     69 | 27.483 % |
|      4924 |   63527   109179   273169 |    78510     4303     73 | 27.512 % |
|      7486 |   63491   109035   272833 |    86361     6096     79 | 27.553 % |
===============================================================================
restarts              : 41
conflicts             : 9530           (5799 /sec)
decisions             : 33033          (0.00 % random) (20102 /sec)
propagations          : 16571228       (10084067 /sec)
conflict literals     : 716027         (56.10 % deleted)
Memory used           : 29.51 MB
CPU time              : 1.64331 s

UNSATISFIABLE
